% seed = 0

mint = 21;
% maxt = 64;

nActs = 32;
dur = [0,3,1,1,1,3,1,1,3,2,1,3,3,1,2,2,2,2,2,1,5,3,2,2,1,4,2,1,5,2,2,0];

nSkills = 9;
sreq = [| 0,0,0,0,0,0,0,0,0,
	| 0,0,0,0,0,0,0,0,1,
	| 0,0,0,0,1,1,0,0,0,
	| 1,0,0,0,0,0,0,0,0,
	| 0,0,0,0,0,0,0,1,1,
	| 0,0,0,0,0,0,0,1,0,
	| 0,0,0,0,0,0,1,1,0,
	| 0,0,0,0,0,1,0,0,0,
	| 0,0,1,0,1,0,0,0,0,
	| 0,0,0,1,1,0,0,0,0,
	| 0,1,0,0,0,1,0,0,0,
	| 0,0,0,0,0,1,0,0,0,
	| 0,0,0,0,0,1,0,1,0,
	| 0,0,0,0,1,1,0,0,0,
	| 0,0,0,1,0,0,1,0,0,
	| 0,0,0,0,0,1,0,0,0,
	| 0,1,0,0,0,0,0,0,1,
	| 0,0,0,0,0,1,0,0,1,
	| 0,0,1,0,0,0,0,0,0,
	| 0,0,0,0,0,0,0,0,1,
	| 0,0,0,0,1,1,0,0,0,
	| 0,0,0,0,0,0,0,0,1,
	| 0,0,1,0,0,0,0,0,0,
	| 0,0,0,1,0,1,0,0,0,
	| 0,0,0,0,0,1,0,1,0,
	| 0,0,0,0,0,0,0,1,1,
	| 0,0,0,0,0,1,0,0,0,
	| 0,0,0,0,0,0,0,1,0,
	| 0,0,0,0,0,1,0,0,0,
	| 0,0,0,0,0,0,0,1,0,
	| 0,0,0,0,0,0,1,0,1,
	| 0,0,0,0,0,0,0,0,0, |];

% SumOfsreq = 46;

nResources = 7;
mastery = [| false,false,false,false,true,true,true,true,true,
	| false,false,false,false,false,true,false,true,true,
	| false,false,false,false,false,false,false,false,true,
	| false,false,false,true,true,true,false,false,false,
	| false,false,false,false,false,true,false,true,true,
	| true,true,true,false,false,false,true,true,true,
	| false,false,false,false,false,false,true,true,true, |];

nPrecs = 58;
pred = [1,1,1,2,2,2,3,3,3,4,4,5,5,5,6,6,7,7,7,8,9,9,10,10,11,11,12,13,14,14,15,15,16,16,16,17,17,17,18,18,18,19,20,21,21,22,22,23,24,24,25,26,27,27,28,29,30,31];
succ = [2,3,4,9,6,7,10,13,8,5,6,9,30,7,17,28,18,19,14,25,11,12,11,12,24,16,26,20,15,16,21,22,25,20,21,19,21,30,20,22,24,26,28,29,31,26,23,27,25,28,27,27,29,31,31,32,32,32];

nUnrels = 210;
unpred = [2,2,2,2,2,2,3,3,3,3,3,3,3,3,3,3,3,3,3,4,4,4,5,5,5,5,5,6,6,6,6,6,6,6,6,6,6,6,6,6,6,6,6,7,7,7,7,7,7,7,7,8,8,8,8,8,8,8,8,8,8,8,8,8,8,8,8,8,8,8,9,9,9,9,9,9,9,9,9,9,10,10,10,10,10,10,10,10,10,11,11,11,11,11,11,11,11,11,11,11,12,12,12,12,12,12,12,12,12,12,12,12,12,12,12,13,13,13,13,13,13,13,13,13,13,13,13,13,13,13,14,14,14,14,14,15,15,15,15,15,15,15,15,15,16,16,16,16,16,16,16,16,17,17,17,17,17,17,17,18,18,18,19,19,19,19,19,19,19,19,20,20,20,20,20,20,20,20,20,21,21,21,21,21,21,21,21,22,22,22,22,23,23,23,23,23,24,24,25,25,25,26,26,27,27,28,28,29,29,30];
unsucc = [3,4,5,8,10,13,4,5,6,7,9,14,15,17,18,19,22,23,30,8,10,13,6,8,10,13,17,7,8,9,10,11,12,13,14,15,16,18,20,22,23,24,25,8,9,10,11,12,13,17,30,9,10,11,12,13,14,15,16,17,18,19,20,21,22,23,24,26,28,30,10,13,14,15,17,18,19,22,23,30,13,14,15,17,18,19,22,23,30,12,13,14,15,17,18,19,22,23,26,30,13,14,15,16,17,18,19,20,21,22,23,24,25,28,30,14,15,16,17,18,19,21,22,23,24,25,26,27,29,30,17,18,19,24,30,16,17,18,19,20,24,25,28,30,17,18,19,22,23,24,26,30,18,20,22,23,24,25,28,19,21,30,20,21,22,23,24,25,28,30,21,22,23,24,25,26,27,29,30,22,23,24,25,26,27,28,30,24,25,28,30,24,25,26,28,30,26,30,26,28,30,28,30,28,30,29,30,30,31,31];

USEFUL_RES = [{},
	{1,2,3,5,6,7},
	{1,2,4,5},
	{6},
	{1,2,3,5,6,7},
	{1,2,5,6,7},
	{1,2,5,6,7},
	{1,2,4,5},
	{1,4,6},
	{1,4},
	{1,2,4,5,6},
	{1,2,4,5},
	{1,2,4,5,6,7},
	{1,2,4,5},
	{1,4,6,7},
	{1,2,4,5},
	{1,2,3,5,6,7},
	{1,2,3,4,5,6,7},
	{6},
	{1,2,3,5,6,7},
	{1,2,4,5},
	{1,2,3,5,6,7},
	{6},
	{1,2,4,5},
	{1,2,4,5,6,7},
	{1,2,3,5,6,7},
	{1,2,4,5},
	{1,2,5,6,7},
	{1,2,4,5},
	{1,2,5,6,7},
	{1,2,3,5,6,7},
	{}];

POTENTIAL_ACT = [{2,3,5,6,7,8,9,10,11,12,13,14,15,16,17,18,20,21,22,24,25,26,27,28,29,30,31},
	{2,3,5,6,7,8,11,12,13,14,16,17,18,20,21,22,24,25,26,27,28,29,30,31},
	{2,5,17,18,20,22,26,31},
	{3,8,9,10,11,12,13,14,15,16,18,21,24,25,27,29},
	{2,3,5,6,7,8,11,12,13,14,16,17,18,20,21,22,24,25,26,27,28,29,30,31},
	{2,4,5,6,7,9,11,13,15,17,18,19,20,22,23,25,26,28,30,31},
	{2,5,6,7,13,15,17,18,20,22,25,26,28,30,31}];
